p cnf 7 27
-1 0
3 0
-1 6 0
2 -5 0
-3 -1 0
5 6 0
-7 0
3 0
-7 -4 0
-7 3 4 0
1 -6 -2 7 0
-6 3 0
3 6 7 0
1 -3 0
2 -4 6 7 0
3 -7 -5 5 0
1 -6 0
2 -4 -2 0
1 -6 2 0
2 -6 -5 5 0
1 0
-3 0
-7 3 -2 -5 0
3 0
5 -5 -3 0
2 0
2 -6 -3 0
